VALUE 1300511
2 299
5 152
7 114
8 135
11 259
17 122
22 56
25 226
27 167
34 46
36 83
38 73
27 40
46 72
48 88
50 76
53 79
11 55
55 56
48 72
34 73
76 88
79 81
81 84
38 83
84 115
84 87
88 91
91 94
36 93
94 109
93 96
101 103
96 102
87 103
109 151
101 114
115 118
102 117
118 122
117 122
7 135
8 143
151 154
143 152
154 159
159 179
159 167
179 193
193 208
25 208
226 239
239 246
246 250
250 254
254 268
254 256
256 259
268 276
276 286
2 286
5 300
7 301
56 302
17 303
22 304
25 305
27 306
38 307
40 308
46 309
50 310
53 311

